--- Job Amazon transport(1).gms Start 10/03/23 14:50:27 44.4.0 06604687 WEX-WEI x86 64bit/MS Windows
--- Applying:
    Q:\GAMS\44\gmsprmNT.txt
--- GAMS Parameters defined
    Input "C:\Users\redhawc\Desktop\EDI_BUSANA\mathematic\GAMS_CODE\Amazon transport(1).gms"
    PageSize 0
    ScrDir C:\Users\redhawc\Desktop\EDI_BUSANA\mathematic\GAMS_CODE\225a\
    SysDir Q:\GAMS\44\
    LogOption 3
    ErrMsg 1
    ErrorLog 99
    IDE 1
    LstTitleLeftAligned 1
Licensee: Course License                                 S230704|0002AO-GEN
          University of Edinburgh, Business School                  DCE2899
          C:\Users\redhawc\Documents\GAMS\gamslice.txt
          License Admin: Douglas Alem, douglas.alem@ed.ac.uk               
          Course license for use within the course and related course work
Processor information: 1 socket(s), 8 core(s), and 16 thread(s) available
GAMS 44.4.0   Copyright (C) 1987-2023 GAMS Development. All rights reserved
--- Starting compilation
--- Amazon transport(1).gms(71) 3 Mb
--- Starting execution: elapsed 0:00:00.009
--- Amazon transport(1).gms(45) 4 Mb
--- Generating MIP model transport
--- Amazon transport(1).gms(66) 4 Mb
---   8 rows  11 columns  31 non-zeroes
--- Range statistics (absolute non-zero finite values)
--- RHS       [min, max] : [ 9.000E+02, 7.000E+03] - Zero values observed as well
--- Bound     [min, max] : [        NA,        NA] - Zero values observed as well
--- Matrix    [min, max] : [ 1.000E+00, 3.420E+02]
--- Executing CPLEX (Solvelink=2): elapsed 0:00:00.036

IBM ILOG CPLEX   44.4.0 06604687 Sep 19, 2023          WEI x86 64bit/MS Window

--- GAMS/CPLEX licensed for continuous and discrete problems.
--- GMO setup time: 0.00s
--- GMO memory 0.50 Mb (peak 0.50 Mb)
--- Dictionary memory 0.00 Mb
--- Cplex 22.1.1.0 link memory 0.00 Mb (peak 0.00 Mb)
--- Starting Cplex

Version identifier: 22.1.1.0 | 2022-11-27 | 9160aff4d
CPXPARAM_Advance                                 0
CPXPARAM_Simplex_Display                         2
CPXPARAM_Threads                                 1
CPXPARAM_MIP_Display                             4
CPXPARAM_MIP_Pool_Capacity                       0
CPXPARAM_MIP_Tolerances_AbsMIPGap                0
CPXPARAM_MIP_Tolerances_MIPGap                   0
Tried aggregator 1 time.
LP Presolve eliminated 0 rows and 1 columns.
Reduced LP has 7 rows, 10 columns, and 20 nonzeros.
Presolve time = 0.02 sec. (0.01 ticks)

Iteration      Dual Objective            In Variable           Out Variable
     1          747000.000000  x(Dunfermline,Dundee)  constr2(Dundee) slack
     2         1085400.000000   x(Dunfermline,Perth)   constr2(Perth) slack
     3         1511280.000000     x(Edinburgh,Perth)constr1(Dunfermli slack
     4         1570950.000000   x(Portlethen,Dundee)   x(Dunfermline,Perth)
     5         1593180.000000   x(Dunfermline,Perth)constr1(Edinburgh slack
     6         1624080.000000      x(Bathgate,Perth)  x(Dunfermline,Dundee)

--- LP status (1): optimal.
--- Cplex Time: 0.03sec (det. 0.01 ticks)


Optimal solution found
Objective:      1624080.000000

--- Reading solution for model transport
--- Executing after solve: elapsed 0:00:00.372
--- Amazon transport(1).gms(67) 4 Mb
*** Status: Normal completion
--- Job Amazon transport(1).gms Stop 10/03/23 14:50:27 elapsed 0:00:00.372
